% Logging successfully configured
%%%mzn-stat: initTime=0.017584824
%%%mzn-stat: objective=527
%%%mzn-stat: nodes=1348
%%%mzn-stat: restarts=0
%%%mzn-stat: peakDepth=400
%%%mzn-stat: solveTime=0.072522994
%%%mzn-stat: variables=774
%%%mzn-stat: propagators=1775
%%%mzn-stat: failures=409
%%%mzn-stat: propagations=177804
%%%mzn-stat: nogoods=409
%%%mzn-stat: numAtomicConstraintsPropagated=0
%%%mzn-stat: circuitNumber1226PropagationsThatFoundConflict=118
%%%mzn-stat: circuitNumber1226TotalFixedEdgesAtConflict=5068
%%%mzn-stat: circuitNumber1226NumberOfConflicts=118
%%%mzn-stat: circuitNumber1226PropagationsThatPruned=208
%%%mzn-stat: circuitNumber1226PropagationsTotal=1201
%%%mzn-stat: AverageConflictSize=10.550122249388753
%%%mzn-stat: NumUnitNogoodsLearned=0
%%%mzn-stat: AverageLearnedNogoodLength=19.750611246943766
%%%mzn-stat: AverageBacktrackAmount=0
%%%mzn-stat: AverageLbd=12.47677261613692
%%%mzn-stat: 2AutonomousSearchNumBackupCalled=364
%%%mzn-stat: 2AutonomousSearchNumPredicatesRemoved=0
%%%mzn-stat: 2AutonomousSearchNumCalls=365
%%%mzn-stat: 2AutonomousSearchNumPredicatesAdded=1406
%%%mzn-stat: 2AutonomousSearchAverageSizeOfHeap=3.852054794520548
%%%mzn-stat: 2AutonomousSearchNumAssignedPredicatesEncountered=1406
%%%mzn-stat-end
maxleg = 527;
succ = array1d(1..50,[7, 8, 4, 11, 14, 18, 5, 10, 26, 12, 16, 19, 15, 24, 33, 28, 3, 13, 17, 6, 23, 20, 30, 49, 43, 37, 2, 32, 9, 47, 22, 40, 46, 27, 36, 21, 39, 31, 1, 45, 29, 34, 38, 41, 35, 50, 25, 42, 48, 44]);
% time elapsed: 17.42 s
----------
%%%mzn-stat: initTime=0.017584824
%%%mzn-stat: objective=342
%%%mzn-stat: nodes=1995
%%%mzn-stat: restarts=0
%%%mzn-stat: peakDepth=400
%%%mzn-stat: solveTime=0.097006399
%%%mzn-stat: variables=774
%%%mzn-stat: propagators=1775
%%%mzn-stat: failures=533
%%%mzn-stat: propagations=224194
%%%mzn-stat: nogoods=533
%%%mzn-stat: numAtomicConstraintsPropagated=0
%%%mzn-stat: circuitNumber1226PropagationsThatFoundConflict=132
%%%mzn-stat: circuitNumber1226TotalFixedEdgesAtConflict=5667
%%%mzn-stat: circuitNumber1226NumberOfConflicts=132
%%%mzn-stat: circuitNumber1226PropagationsThatPruned=246
%%%mzn-stat: circuitNumber1226PropagationsTotal=1508
%%%mzn-stat: AverageConflictSize=9.97936210131332
%%%mzn-stat: NumUnitNogoodsLearned=0
%%%mzn-stat: AverageLearnedNogoodLength=20.024390243902438
%%%mzn-stat: AverageBacktrackAmount=0
%%%mzn-stat: AverageLbd=12.317073170731707
%%%mzn-stat: 2AutonomousSearchNumBackupCalled=716
%%%mzn-stat: 2AutonomousSearchNumPredicatesRemoved=0
%%%mzn-stat: 2AutonomousSearchNumCalls=718
%%%mzn-stat: 2AutonomousSearchNumPredicatesAdded=2529
%%%mzn-stat: 2AutonomousSearchAverageSizeOfHeap=4.076601671309192
%%%mzn-stat: 2AutonomousSearchNumAssignedPredicatesEncountered=2927
%%%mzn-stat-end
maxleg = 342;
succ = array1d(1..50,[7, 8, 4, 11, 14, 18, 5, 10, 26, 12, 16, 27, 15, 24, 33, 28, 3, 13, 17, 6, 23, 20, 30, 49, 43, 37, 34, 32, 9, 47, 22, 40, 46, 19, 36, 21, 39, 31, 1, 45, 29, 2, 38, 41, 35, 50, 25, 42, 48, 44]);
% time elapsed: 17.44 s
----------
%%%mzn-stat: initTime=0.017584824
%%%mzn-stat: objective=339
%%%mzn-stat: nodes=2456
%%%mzn-stat: restarts=0
%%%mzn-stat: peakDepth=400
%%%mzn-stat: solveTime=0.112003535
%%%mzn-stat: variables=774
%%%mzn-stat: propagators=1775
%%%mzn-stat: failures=582
%%%mzn-stat: propagations=245301
%%%mzn-stat: nogoods=582
%%%mzn-stat: numAtomicConstraintsPropagated=0
%%%mzn-stat: circuitNumber1226PropagationsThatFoundConflict=158
%%%mzn-stat: circuitNumber1226TotalFixedEdgesAtConflict=6853
%%%mzn-stat: circuitNumber1226NumberOfConflicts=158
%%%mzn-stat: circuitNumber1226PropagationsThatPruned=289
%%%mzn-stat: circuitNumber1226PropagationsTotal=1694
%%%mzn-stat: AverageConflictSize=11.049828178694158
%%%mzn-stat: NumUnitNogoodsLearned=0
%%%mzn-stat: AverageLearnedNogoodLength=20.560137457044675
%%%mzn-stat: AverageBacktrackAmount=0
%%%mzn-stat: AverageLbd=13.042955326460481
%%%mzn-stat: 2AutonomousSearchNumBackupCalled=1057
%%%mzn-stat: 2AutonomousSearchNumPredicatesRemoved=0
%%%mzn-stat: 2AutonomousSearchNumCalls=1060
%%%mzn-stat: 2AutonomousSearchNumPredicatesAdded=3162
%%%mzn-stat: 2AutonomousSearchAverageSizeOfHeap=4.202830188679245
%%%mzn-stat: 2AutonomousSearchNumAssignedPredicatesEncountered=4455
%%%mzn-stat-end
maxleg = 339;
succ = array1d(1..50,[7, 8, 4, 11, 14, 18, 5, 10, 26, 19, 16, 2, 15, 24, 33, 28, 3, 13, 17, 6, 23, 20, 30, 49, 43, 37, 12, 32, 9, 47, 22, 40, 46, 27, 36, 21, 39, 31, 1, 45, 29, 34, 38, 41, 35, 50, 25, 42, 48, 44]);
% time elapsed: 17.45 s
----------
%%%mzn-stat: initTime=0.017584824
%%%mzn-stat: objective=307
%%%mzn-stat: nodes=4438
%%%mzn-stat: restarts=0
%%%mzn-stat: peakDepth=400
%%%mzn-stat: solveTime=0.265870926
%%%mzn-stat: variables=774
%%%mzn-stat: propagators=1775
%%%mzn-stat: failures=1342
%%%mzn-stat: propagations=546026
%%%mzn-stat: nogoods=1342
%%%mzn-stat: numAtomicConstraintsPropagated=0
%%%mzn-stat: circuitNumber1226PropagationsThatFoundConflict=491
%%%mzn-stat: circuitNumber1226TotalFixedEdgesAtConflict=20497
%%%mzn-stat: circuitNumber1226NumberOfConflicts=491
%%%mzn-stat: circuitNumber1226PropagationsThatPruned=735
%%%mzn-stat: circuitNumber1226PropagationsTotal=3863
%%%mzn-stat: AverageConflictSize=14.852459016393443
%%%mzn-stat: NumUnitNogoodsLearned=0
%%%mzn-stat: AverageLearnedNogoodLength=22.476154992548434
%%%mzn-stat: AverageBacktrackAmount=0
%%%mzn-stat: AverageLbd=14.706408345752608
%%%mzn-stat: 2AutonomousSearchNumBackupCalled=1400
%%%mzn-stat: 2AutonomousSearchNumPredicatesRemoved=0
%%%mzn-stat: 2AutonomousSearchNumCalls=1404
%%%mzn-stat: 2AutonomousSearchNumPredicatesAdded=5073
%%%mzn-stat: 2AutonomousSearchAverageSizeOfHeap=4.700854700854701
%%%mzn-stat: 2AutonomousSearchNumAssignedPredicatesEncountered=6600
%%%mzn-stat-end
maxleg = 307;
succ = array1d(1..50,[7, 8, 4, 11, 14, 20, 5, 10, 26, 19, 16, 2, 15, 24, 18, 28, 3, 22, 17, 23, 30, 6, 21, 37, 43, 33, 34, 32, 9, 47, 12, 40, 39, 42, 36, 27, 29, 31, 41, 45, 44, 48, 38, 46, 35, 50, 25, 49, 1, 13]);
% time elapsed: 17.61 s
----------
=====ERROR=====
% time elapsed: 1459.40 s
